qbf_easy_train/easy_3077_SAT.qdimacs
p cnf 21 47
a 1 3 13 0
e 2 4 5 6 7 8 9 10 11 12 14 15 16 17 18 19 20 21 0
1 2 -3 0
-1 -2 -3 0
1 -2 3 0
-1 2 3 0
6 -4 0
6 5 0
4 -5 -6 0
-7 6 0
-7 -6 0
-7 -2 -8 0
7 2 -8 0
-7 2 8 0
7 -2 8 0
-9 -3 0
-9 -8 0
3 8 9 0
11 -4 0
11 10 0
4 -10 -11 0
7 -4 -12 0
-7 4 -12 0
7 4 12 0
-7 -4 12 0
11 12 -13 0
-11 -12 -13 0
11 -12 13 0
-11 12 13 0
14 9 0
14 13 0
-9 -13 -14 0
17 -15 0
17 16 0
15 -16 -17 0
-19 16 0
-19 18 0
-16 -18 19 0
-20 -17 0
-20 19 0
17 -19 20 0
21 -14 0
21 20 0
14 -20 -21 0
10 -13 -19 -4 -18 14 0
-14 10 -4 15 0
16 -19 17 21 0
18 2 1 -17 11 20 0
21 0
