sat_easy_train/easy_3077_SAT.dimacs
p cnf 121 406
-3 1 0
-3 -2 0
-1 2 3 0
-6 -4 0
-6 -5 0
4 5 6 0
-8 -5 0
-8 -7 0
5 7 8 0
9 8 0
9 1 0
-8 -1 -9 0
-6 9 -10 0
6 -9 -10 0
-6 -9 10 0
6 9 10 0
-3 10 -11 0
3 -10 -11 0
-3 -10 11 0
3 10 11 0
-13 -12 0
-13 -2 0
12 2 13 0
14 -13 0
14 -9 0
13 9 -14 0
18 16 0
18 -17 0
-16 17 -18 0
-19 -15 0
-19 18 0
15 -18 19 0
20 -14 0
20 19 0
14 -19 -20 0
-21 -12 0
-21 -20 0
12 20 21 0
-11 21 -22 0
11 -21 -22 0
-11 -21 22 0
11 21 22 0
24 1 -25 0
-24 -1 -25 0
24 -1 25 0
-24 1 25 0
26 -16 0
26 16 0
27 -17 0
27 -26 0
17 26 -27 0
-28 27 0
-28 4 0
-27 -4 28 0
-29 25 0
-29 -28 0
-25 28 29 0
30 -23 0
30 -29 0
23 29 -30 0
-22 30 -31 0
22 -30 -31 0
-22 -30 31 0
22 30 31 0
33 8 0
33 8 0
-8 -33 0
-34 8 0
-34 33 0
-8 -33 34 0
16 34 -35 0
-16 -34 -35 0
16 -34 35 0
-16 34 35 0
36 32 0
36 35 0
-32 -35 -36 0
37 -31 0
37 36 0
31 -36 -37 0
4 26 -39 0
-4 -26 -39 0
4 -26 39 0
-4 26 39 0
-40 38 0
-40 -39 0
-38 39 40 0
1 2 -41 0
-1 -2 -41 0
1 -2 41 0
-1 2 41 0
-41 25 -42 0
41 -25 -42 0
-41 -25 42 0
41 25 42 0
43 -42 0
43 -7 0
42 7 -43 0
44 25 0
44 -25 0
45 15 0
45 -12 0
-15 12 -45 0
-46 -44 0
-46 45 0
44 -45 46 0
47 -43 0
47 -46 0
43 46 -47 0
40 -47 -48 0
-40 47 -48 0
40 47 48 0
-40 -47 48 0
-44 16 -49 0
44 -16 -49 0
-44 -16 49 0
44 16 49 0
-50 6 0
-50 -49 0
-6 49 50 0
-8 15 -51 0
8 -15 -51 0
-8 -15 51 0
8 15 51 0
-52 -20 0
-52 51 0
20 -51 52 0
53 20 0
53 39 0
-20 -39 -53 0
54 -8 0
54 -53 0
8 53 -54 0
55 -52 0
55 54 0
52 -54 -55 0
-56 17 0
-56 -33 0
-17 33 56 0
-58 56 0
-58 -57 0
-56 57 58 0
55 -58 -59 0
-55 58 -59 0
55 58 59 0
-55 -58 59 0
60 -50 0
60 -59 0
50 59 -60 0
61 -27 0
61 -25 0
27 25 -61 0
-61 -29 -62 0
61 29 -62 0
-61 29 62 0
61 -29 62 0
54 -33 -63 0
-54 33 -63 0
54 33 63 0
-54 -33 63 0
64 -62 0
64 63 0
62 -63 -64 0
60 -64 -65 0
-60 64 -65 0
60 64 65 0
-60 -64 65 0
66 48 0
66 -65 0
-48 65 -66 0
-68 32 0
-68 67 0
-32 -67 68 0
69 7 0
69 41 0
-7 -41 -69 0
70 68 0
70 -69 0
-68 69 -70 0
-66 -70 -71 0
66 70 -71 0
-66 70 71 0
66 -70 71 0
53 -32 -72 0
-53 32 -72 0
53 32 72 0
-53 -32 72 0
-72 -13 -73 0
72 13 -73 0
-72 13 73 0
72 -13 73 0
18 -24 -74 0
-18 24 -74 0
18 24 74 0
-18 -24 74 0
75 51 0
75 -15 0
-51 15 -75 0
76 25 0
76 61 0
-25 -61 -76 0
-77 8 0
-77 -23 0
-8 23 77 0
76 77 -78 0
-76 -77 -78 0
76 -77 78 0
-76 77 78 0
-79 75 0
-79 78 0
-75 -78 79 0
-80 79 0
-80 -44 0
-79 44 80 0
-81 -74 0
-81 -80 0
74 80 81 0
-82 -67 0
-82 39 0
67 -39 82 0
-41 82 -83 0
41 -82 -83 0
-41 -82 83 0
41 82 83 0
84 56 0
84 83 0
-56 -83 -84 0
-85 -41 0
-85 84 0
41 -84 85 0
86 -12 0
86 -13 0
12 13 -86 0
87 -4 0
87 77 0
4 -77 -87 0
86 -87 -88 0
-86 87 -88 0
86 87 88 0
-86 -87 88 0
85 88 -89 0
-85 -88 -89 0
85 -88 89 0
-85 88 89 0
81 89 -90 0
-81 -89 -90 0
81 -89 90 0
-81 89 90 0
-15 -27 -91 0
15 27 -91 0
-15 27 91 0
15 -27 91 0
-91 -7 -92 0
91 7 -92 0
-91 7 92 0
91 -7 92 0
93 -92 0
93 5 0
92 -5 -93 0
94 17 -95 0
-94 -17 -95 0
94 -17 95 0
-94 17 95 0
96 95 0
96 -9 0
-95 9 -96 0
61 96 -97 0
-61 -96 -97 0
61 -96 97 0
-61 96 97 0
-92 97 -98 0
92 -97 -98 0
-92 -97 98 0
92 97 98 0
93 -98 -99 0
-93 98 -99 0
93 98 99 0
-93 -98 99 0
90 -99 -100 0
-90 99 -100 0
90 99 100 0
-90 -99 100 0
-101 -73 0
-101 100 0
73 -100 101 0
51 1 -102 0
-51 -1 -102 0
51 -1 102 0
-51 1 102 0
103 -72 0
103 14 0
72 -14 -103 0
-104 102 0
-104 -103 0
-102 103 104 0
105 -101 0
105 104 0
101 -104 -105 0
-106 71 0
-106 105 0
-71 -105 106 0
107 37 0
107 -106 0
-37 106 -107 0
-72 86 -108 0
72 -86 -108 0
-72 -86 108 0
72 86 108 0
13 -108 -109 0
-13 108 -109 0
13 108 109 0
-13 -108 109 0
-26 -25 -110 0
26 25 -110 0
-26 25 110 0
26 -25 110 0
-111 -110 0
-111 34 0
110 -34 111 0
112 72 0
112 -56 0
-72 56 -112 0
-111 112 -113 0
111 -112 -113 0
-111 -112 113 0
111 112 113 0
-114 -109 0
-114 113 0
109 -113 114 0
-115 110 0
-115 6 0
-110 -6 115 0
116 86 0
116 -28 0
-86 28 -116 0
-117 115 0
-117 116 0
-115 -116 117 0
2 -52 -118 0
-2 52 -118 0
2 52 118 0
-2 -52 118 0
119 -117 0
119 -118 0
117 118 -119 0
-120 -114 0
-120 119 0
114 -119 120 0
107 120 -121 0
-107 -120 -121 0
107 -120 121 0
-107 120 121 0
32 -68 0
66 -50 0
-38 73 37 0
6 52 0
-60 -114 67 -33 0
-42 -75 -34 0
-112 59 0
57 -46 -58 103 109 -95 0
109 25 30 -81 4 0
-69 117 -85 0
101 -43 26 82 88 0
14 -47 26 0
-86 18 52 67 -46 -120 0
58 61 -120 0
57 8 -88 120 0
92 80 -49 -55 98 0
-5 47 -42 -82 -44 29 0
-22 70 37 -101 0
49 -98 0
-46 -41 -42 -100 -98 -51 0
56 -113 22 0
-23 80 0
-2 99 51 -62 73 44 0
-47 75 0
8 120 -100 0
12 -14 -17 -76 38 -89 0
-60 93 0
-32 -8 0
52 59 103 99 -62 0
55 42 25 0
-111 -51 -100 -90 -86 75 0
89 -49 -53 0
-67 -44 -94 68 -65 0
120 -98 -86 -119 -30 -6 0
-33 120 0
45 -15 -121 110 33 -72 0
-62 15 0
116 -109 59 31 0
-65 -105 26 0
98 112 0
14 57 -120 70 -51 -72 0
-107 97 -102 -63 42 19 0
25 -65 -60 -36 49 -50 0
70 111 -117 0
-104 -23 0
80 -62 0
29 -84 -67 107 -1 0
-84 51 -27 0
-89 59 0
95 105 2 39 -87 0
-25 37 80 34 -101 0
-113 114 -45 8 26 0
-36 -7 84 41 -66 6 0
121 0
